p edge 64 512
e 1 6
e 1 36
e 1 32
e 1 61
e 1 52
e 1 5
e 1 45
e 1 33
e 1 42
e 1 47
e 1 7
e 1 51
e 1 24
e 1 10
e 1 35
e 1 21
e 2 9
e 2 20
e 2 18
e 2 28
e 2 41
e 2 62
e 2 50
e 2 16
e 2 14
e 2 51
e 2 25
e 2 10
e 2 24
e 2 6
e 2 64
e 2 27
e 3 31
e 3 52
e 3 51
e 3 29
e 3 18
e 3 10
e 3 50
e 3 12
e 3 15
e 3 37
e 3 8
e 3 42
e 3 43
e 3 5
e 3 63
e 4 60
e 4 56
e 4 63
e 4 61
e 4 5
e 4 31
e 4 21
e 4 10
e 4 64
e 4 9
e 4 12
e 5 17
e 5 37
e 5 49
e 5 40
e 5 21
e 5 9
e 5 60
e 5 42
e 5 6
e 5 39
e 5 51
e 5 44
e 5 35
e 5 55
e 5 57
e 5 54
e 5 25
e 6 57
e 6 33
e 6 17
e 6 7
e 6 34
e 6 54
e 6 19
e 6 24
e 6 26
e 6 21
e 7 49
e 7 57
e 7 19
e 7 34
e 7 39
e 7 21
e 7 51
e 7 58
e 7 12
e 7 52
e 7 22
e 7 9
e 8 48
e 8 16
e 8 47
e 8 32
e 8 30
e 8 40
e 8 54
e 8 61
e 8 29
e 8 57
e 8 43
e 8 9
e 8 13
e 8 34
e 8 18
e 8 28
e 8 59
e 8 60
e 8 53
e 9 62
e 9 31
e 9 49
e 9 63
e 9 58
e 9 53
e 9 50
e 9 42
e 9 36
e 9 26
e 9 60
e 9 32
e 9 11
e 9 55
e 9 14
e 9 27
e 9 24
e 9 28
e 9 39
e 10 61
e 10 42
e 10 24
e 10 11
e 10 19
e 10 45
e 10 15
e 10 50
e 10 62
e 10 58
e 10 29
e 10 27
e 10 46
e 10 22
e 10 60
e 10 53
e 11 62
e 11 21
e 11 37
e 11 50
e 11 44
e 11 25
e 11 51
e 11 35
e 11 59
e 11 53
e 11 48
e 11 39
e 11 34
e 12 48
e 12 49
e 12 47
e 12 35
e 12 16
e 12 60
e 12 17
e 12 32
e 12 26
e 12 19
e 13 44
e 13 58
e 13 39
e 13 53
e 13 34
e 13 50
e 13 46
e 13 25
e 13 14
e 13 20
e 13 47
e 13 62
e 13 32
e 13 43
e 13 49
e 14 22
e 14 32
e 14 37
e 14 27
e 14 24
e 14 60
e 14 18
e 14 59
e 14 41
e 14 57
e 15 36
e 15 44
e 15 45
e 15 33
e 15 23
e 15 46
e 15 62
e 15 25
e 15 43
e 15 26
e 15 56
e 15 16
e 15 63
e 15 58
e 15 32
e 15 28
e 15 50
e 15 61
e 15 55
e 15 54
e 15 41
e 15 20
e 16 37
e 16 20
e 16 38
e 16 17
e 16 40
e 16 56
e 16 24
e 16 36
e 16 59
e 16 33
e 16 63
e 16 46
e 16 41
e 17 42
e 17 36
e 17 62
e 17 51
e 17 34
e 17 60
e 17 53
e 17 61
e 17 46
e 17 21
e 18 61
e 18 63
e 18 48
e 18 40
e 18 37
e 18 60
e 18 32
e 18 49
e 18 36
e 18 29
e 19 62
e 19 32
e 19 46
e 19 48
e 19 55
e 19 52
e 19 20
e 19 31
e 19 40
e 20 26
e 20 33
e 20 38
e 20 34
e 20 51
e 20 24
e 20 52
e 21 48
e 21 40
e 21 51
e 21 33
e 21 37
e 21 28
e 21 53
e 21 22
e 21 32
e 21 55
e 21 30
e 22 64
e 22 63
e 22 59
e 22 26
e 22 50
e 22 48
e 22 36
e 22 55
e 22 41
e 23 62
e 23 58
e 23 41
e 23 48
e 23 61
e 23 32
e 23 52
e 23 51
e 23 49
e 23 59
e 23 42
e 23 57
e 23 30
e 23 24
e 23 25
e 23 29
e 23 43
e 24 29
e 24 56
e 24 43
e 24 60
e 24 50
e 24 42
e 24 46
e 24 57
e 24 34
e 24 30
e 25 36
e 25 59
e 25 29
e 25 58
e 25 48
e 25 31
e 25 49
e 26 38
e 26 60
e 26 33
e 26 29
e 26 58
e 26 32
e 26 28
e 26 37
e 27 37
e 27 43
e 27 57
e 27 53
e 27 33
e 27 48
e 27 49
e 27 63
e 27 47
e 27 51
e 27 32
e 27 35
e 28 60
e 28 54
e 28 53
e 28 39
e 28 33
e 28 43
e 28 62
e 28 52
e 28 50
e 29 36
e 29 43
e 29 44
e 29 64
e 29 49
e 29 38
e 29 63
e 29 37
e 29 57
e 29 52
e 30 57
e 30 52
e 30 42
e 30 36
e 30 64
e 30 55
e 30 58
e 30 54
e 30 31
e 30 32
e 30 38
e 31 33
e 31 59
e 31 56
e 31 55
e 31 41
e 31 34
e 31 38
e 31 42
e 31 64
e 32 34
e 32 60
e 32 43
e 32 63
e 32 35
e 33 59
e 33 51
e 33 60
e 33 38
e 33 45
e 33 37
e 33 56
e 33 42
e 33 49
e 34 58
e 34 38
e 34 45
e 34 36
e 34 51
e 34 61
e 35 49
e 35 60
e 35 42
e 35 39
e 35 63
e 35 57
e 35 50
e 35 43
e 36 38
e 36 54
e 36 64
e 36 56
e 36 46
e 36 51
e 36 60
e 36 59
e 37 56
e 37 39
e 37 43
e 38 55
e 38 41
e 38 60
e 38 49
e 38 47
e 38 54
e 38 46
e 38 44
e 38 53
e 39 53
e 39 47
e 39 42
e 39 41
e 39 52
e 39 57
e 39 49
e 39 45
e 40 61
e 40 53
e 40 62
e 40 44
e 40 45
e 40 48
e 40 54
e 41 61
e 41 55
e 41 47
e 41 50
e 41 54
e 41 57
e 41 64
e 41 44
e 41 58
e 42 48
e 42 46
e 42 50
e 42 60
e 42 51
e 42 57
e 42 52
e 42 47
e 43 55
e 43 47
e 43 61
e 43 48
e 44 62
e 44 53
e 44 60
e 45 60
e 45 50
e 45 57
e 45 61
e 45 58
e 45 47
e 45 64
e 46 60
e 46 59
e 46 58
e 46 62
e 47 59
e 47 60
e 47 53
e 48 59
e 48 62
e 48 49
e 48 52
e 48 57
e 49 53
e 49 61
e 49 57
e 49 54
e 49 52
e 49 56
e 49 50
e 50 61
e 51 58
e 52 63
e 52 61
e 53 57
e 55 62
e 55 61
e 56 63
e 56 60
e 56 61
e 57 61
e 58 64
e 60 61
e 60 63
e 61 64
e 62 63
